c FILE: i160-113

c SOURCE: From steinlib

c DESCRIPTION: Steinlib instance with 160 nodes and 812 edges.

p edge 160 812
e 1 23
e 1 35
e 1 53
e 1 62
e 1 68
e 1 71
e 1 77
e 1 81
e 1 82
e 1 86
e 1 100
e 1 111
e 1 116
e 1 119
e 1 120
e 1 123
e 1 145
e 1 146
e 1 153
e 1 155
e 2 46
e 2 69
e 2 75
e 2 93
e 2 94
e 2 100
e 2 110
e 3 7
e 3 16
e 3 17
e 3 43
e 3 73
e 3 95
e 3 96
e 3 127
e 3 134
e 3 143
e 4 25
e 4 38
e 4 45
e 4 54
e 4 116
e 4 145
e 4 147
e 5 8
e 5 36
e 5 70
e 5 73
e 5 92
e 5 94
e 5 96
e 5 103
e 5 144
e 6 9
e 6 11
e 6 13
e 6 21
e 6 26
e 6 46
e 6 67
e 6 71
e 6 73
e 6 91
e 6 107
e 6 112
e 7 40
e 7 43
e 7 105
e 7 112
e 7 115
e 7 142
e 7 156
e 8 10
e 8 18
e 8 27
e 8 33
e 8 34
e 8 43
e 8 54
e 8 61
e 8 64
e 8 65
e 8 70
e 8 74
e 8 80
e 8 84
e 8 101
e 8 130
e 8 149
e 9 27
e 9 41
e 9 59
e 9 92
e 9 108
e 9 154
e 10 13
e 10 20
e 10 32
e 10 47
e 10 50
e 10 72
e 10 91
e 10 106
e 10 112
e 10 120
e 10 125
e 10 138
e 10 139
e 10 141
e 10 156
e 11 32
e 11 36
e 11 101
e 11 107
e 11 123
e 11 138
e 11 145
e 11 150
e 12 43
e 12 45
e 12 58
e 12 100
e 12 118
e 12 142
e 12 152
e 13 37
e 13 46
e 13 62
e 13 78
e 13 104
e 13 106
e 13 146
e 14 20
e 14 22
e 14 34
e 14 38
e 14 54
e 14 55
e 14 92
e 14 97
e 14 102
e 14 117
e 14 119
e 15 35
e 15 43
e 15 83
e 15 115
e 15 118
e 15 145
e 16 17
e 16 21
e 16 34
e 16 49
e 16 80
e 16 89
e 16 92
e 16 118
e 16 128
e 16 142
e 16 154
e 17 40
e 17 76
e 17 82
e 17 95
e 17 97
e 17 104
e 17 118
e 17 119
e 17 123
e 17 125
e 18 33
e 18 48
e 18 50
e 18 67
e 18 109
e 18 120
e 19 42
e 19 61
e 19 93
e 19 98
e 19 124
e 19 128
e 19 132
e 19 140
e 20 42
e 20 60
e 20 61
e 20 77
e 20 88
e 20 107
e 20 128
e 20 138
e 21 22
e 21 33
e 21 35
e 21 45
e 21 46
e 21 57
e 21 58
e 21 70
e 21 74
e 21 115
e 21 120
e 21 144
e 22 37
e 22 53
e 22 86
e 22 92
e 22 94
e 22 147
e 22 150
e 22 152
e 22 158
e 22 159
e 23 25
e 23 39
e 23 50
e 23 71
e 23 127
e 23 131
e 23 136
e 24 90
e 24 93
e 24 103
e 24 104
e 24 108
e 24 124
e 24 153
e 25 29
e 25 52
e 25 95
e 25 101
e 25 102
e 25 139
e 25 141
e 25 160
e 26 54
e 26 105
e 26 112
e 26 129
e 26 138
e 26 141
e 26 142
e 26 150
e 26 151
e 26 154
e 26 160
e 27 51
e 27 70
e 27 78
e 27 92
e 27 136
e 28 39
e 28 42
e 28 54
e 28 56
e 28 64
e 28 76
e 28 77
e 28 78
e 28 91
e 28 115
e 28 124
e 28 135
e 28 138
e 28 151
e 28 155
e 29 42
e 29 51
e 29 58
e 29 70
e 29 83
e 29 91
e 29 93
e 29 108
e 29 128
e 29 130
e 29 143
e 29 145
e 29 154
e 30 46
e 30 71
e 30 106
e 30 138
e 30 142
e 30 157
e 31 46
e 31 49
e 31 54
e 31 55
e 31 56
e 31 57
e 31 73
e 31 102
e 31 103
e 31 153
e 32 41
e 32 50
e 32 52
e 32 59
e 32 69
e 32 73
e 32 83
e 32 106
e 32 116
e 32 158
e 33 35
e 33 49
e 33 73
e 33 117
e 33 126
e 33 140
e 34 42
e 34 47
e 34 71
e 34 76
e 34 112
e 34 123
e 34 135
e 34 139
e 34 146
e 34 157
e 35 42
e 35 70
e 35 86
e 35 87
e 35 90
e 35 97
e 35 102
e 35 114
e 35 130
e 35 140
e 35 149
e 35 158
e 36 48
e 36 56
e 36 69
e 36 103
e 36 148
e 36 149
e 36 159
e 37 47
e 37 56
e 37 59
e 37 74
e 37 81
e 37 84
e 37 115
e 37 122
e 37 124
e 37 129
e 37 135
e 37 149
e 38 42
e 38 55
e 38 73
e 38 76
e 38 90
e 38 91
e 38 103
e 38 137
e 38 143
e 38 144
e 38 151
e 39 44
e 39 77
e 39 83
e 39 127
e 39 135
e 39 141
e 39 144
e 39 153
e 40 70
e 40 79
e 40 93
e 40 105
e 40 132
e 41 49
e 41 58
e 41 64
e 41 80
e 41 81
e 41 89
e 41 111
e 41 122
e 42 43
e 42 44
e 42 72
e 42 74
e 42 85
e 42 99
e 42 149
e 42 150
e 43 55
e 43 56
e 43 70
e 43 133
e 43 146
e 43 150
e 44 62
e 44 120
e 44 129
e 44 142
e 44 146
e 44 148
e 44 151
e 45 61
e 45 78
e 45 83
e 45 158
e 46 47
e 46 70
e 46 73
e 46 144
e 46 152
e 47 72
e 47 89
e 47 113
e 47 116
e 47 147
e 48 120
e 48 148
e 48 152
e 48 156
e 49 118
e 49 119
e 49 126
e 49 141
e 50 60
e 50 64
e 50 104
e 50 117
e 50 124
e 50 129
e 50 130
e 50 139
e 50 142
e 50 148
e 50 153
e 51 53
e 51 94
e 51 97
e 51 113
e 51 116
e 51 126
e 51 130
e 51 145
e 51 151
e 52 73
e 52 74
e 52 89
e 52 103
e 52 110
e 52 117
e 52 121
e 52 136
e 53 54
e 53 60
e 53 61
e 53 63
e 53 70
e 53 85
e 53 120
e 53 121
e 53 128
e 54 71
e 54 83
e 54 92
e 54 97
e 54 109
e 54 124
e 54 127
e 54 144
e 54 157
e 54 158
e 55 81
e 55 110
e 55 117
e 55 130
e 55 145
e 55 151
e 56 78
e 56 87
e 56 94
e 56 108
e 56 114
e 56 116
e 57 62
e 57 65
e 57 68
e 57 83
e 57 87
e 57 100
e 57 129
e 58 74
e 58 105
e 58 143
e 59 73
e 59 74
e 59 91
e 59 103
e 59 143
e 59 152
e 60 94
e 60 99
e 60 107
e 60 109
e 60 112
e 60 114
e 60 147
e 60 152
e 61 111
e 61 113
e 61 151
e 61 158
e 62 63
e 62 153
e 62 154
e 64 66
e 64 102
e 64 112
e 64 134
e 65 101
e 65 134
e 65 143
e 65 150
e 66 112
e 66 126
e 66 133
e 66 146
e 66 154
e 66 159
e 67 78
e 67 79
e 67 98
e 67 106
e 67 107
e 67 112
e 67 124
e 67 128
e 67 138
e 67 157
e 68 69
e 68 82
e 68 84
e 68 147
e 69 70
e 69 71
e 69 77
e 69 90
e 69 116
e 69 121
e 69 127
e 70 73
e 70 78
e 70 83
e 70 85
e 70 89
e 70 90
e 70 118
e 70 141
e 70 145
e 71 92
e 71 97
e 71 107
e 71 119
e 71 124
e 71 127
e 71 148
e 72 78
e 72 85
e 72 116
e 72 122
e 72 142
e 72 154
e 73 122
e 74 107
e 74 141
e 75 79
e 75 121
e 75 146
e 76 77
e 76 86
e 76 90
e 76 105
e 76 112
e 76 114
e 76 152
e 78 81
e 78 83
e 78 90
e 78 121
e 78 122
e 78 140
e 79 143
e 79 157
e 80 132
e 80 145
e 80 159
e 81 99
e 81 127
e 81 153
e 82 90
e 82 94
e 82 100
e 82 109
e 82 110
e 82 128
e 82 160
e 83 91
e 83 115
e 83 116
e 83 142
e 83 152
e 84 88
e 84 97
e 84 144
e 84 157
e 85 91
e 85 152
e 85 153
e 86 105
e 86 109
e 86 121
e 86 125
e 86 148
e 86 150
e 86 154
e 87 106
e 87 121
e 87 139
e 87 154
e 87 160
e 88 96
e 88 112
e 88 134
e 88 151
e 88 154
e 89 103
e 89 106
e 89 126
e 89 152
e 89 160
e 90 93
e 90 105
e 90 114
e 90 131
e 90 147
e 90 151
e 91 120
e 91 121
e 92 94
e 92 112
e 92 120
e 92 148
e 92 156
e 93 94
e 93 95
e 94 113
e 94 125
e 94 128
e 94 129
e 94 137
e 94 139
e 94 147
e 95 100
e 95 102
e 95 108
e 95 117
e 95 134
e 95 135
e 95 155
e 96 98
e 96 119
e 96 133
e 97 128
e 97 132
e 97 151
e 97 159
e 98 116
e 98 120
e 98 128
e 98 141
e 98 149
e 98 150
e 98 159
e 99 131
e 99 141
e 100 119
e 100 125
e 100 127
e 100 129
e 100 133
e 100 149
e 100 151
e 101 103
e 101 113
e 101 123
e 101 129
e 101 136
e 101 154
e 102 109
e 102 135
e 103 128
e 103 144
e 104 107
e 104 111
e 104 155
e 105 110
e 105 137
e 105 142
e 105 145
e 105 157
e 105 160
e 106 120
e 106 154
e 107 126
e 107 132
e 107 147
e 108 133
e 108 146
e 108 150
e 109 121
e 109 143
e 109 153
e 110 115
e 110 136
e 110 137
e 111 113
e 111 121
e 111 122
e 111 131
e 111 147
e 112 130
e 113 155
e 114 136
e 114 138
e 114 143
e 115 124
e 115 131
e 115 146
e 116 156
e 117 143
e 117 145
e 117 151
e 118 125
e 118 129
e 118 149
e 119 159
e 120 136
e 121 147
e 122 124
e 122 128
e 122 143
e 122 146
e 122 148
e 123 127
e 123 130
e 123 151
e 124 125
e 124 128
e 124 135
e 125 130
e 125 137
e 125 149
e 126 137
e 127 152
e 127 154
e 128 133
e 128 148
e 128 155
e 129 131
e 129 135
e 129 147
e 129 158
e 130 138
e 130 145
e 130 160
e 132 139
e 132 160
e 133 154
e 134 147
e 134 153
e 134 157
e 135 138
e 135 144
e 135 146
e 135 147
e 135 160
e 136 139
e 136 151
e 136 157
e 137 152
e 139 153
e 139 156
e 139 158
e 139 160
e 140 149
e 141 154
e 142 143
e 142 145
e 142 146
e 142 151
e 143 152
e 144 145
e 144 153
e 147 148
e 147 150
e 148 150
e 150 156
e 152 158
e 155 157
